(set-logic QF_S)
(declare-fun var0 () String)
(declare-fun var1 () String)
(declare-fun var2 () String)
(declare-fun var3 () String)
(declare-fun var4 () String)
(declare-fun var5 () String)
(declare-fun var6 () String)
(declare-fun var7 () String)
(declare-fun var8 () String)
(declare-fun var9 () String)
(declare-fun var10 () String)
(declare-fun var11 () String)
(declare-fun var12 () String)
(declare-fun var13 () String)
(declare-fun var14 () String)
(declare-fun var15 () String)
(declare-fun var16 () String)
(declare-fun var17 () String)
(declare-fun var18 () String)
(declare-fun var19 () String)
(declare-fun var20 () String)
(declare-fun var21 () String)
(declare-fun var22 () String)
(declare-fun var23 () String)
(declare-fun var24 () String)
(declare-fun var25 () String)
(declare-fun var26 () String)
(declare-fun var27 () String)
(declare-fun var28 () String)
(declare-fun var29 () String)
(declare-fun var30 () String)
(declare-fun var31 () String)
(declare-fun var32 () String)
(declare-fun var33 () String)
(declare-fun var34 () String)
(declare-fun var35 () String)
(declare-fun var36 () String)
(declare-fun var37 () String)
(declare-fun var38 () String)
(declare-fun var39 () String)
(declare-fun var40 () String)
(declare-fun var41 () String)
(declare-fun var42 () String)
(declare-fun var43 () String)
(declare-fun var44 () String)
(declare-fun var45 () String)
(declare-fun var46 () String)
(declare-fun var47 () String)
(declare-fun var48 () String)
(declare-fun var49 () String)
(declare-fun var50 () String)
(declare-fun var51 () String)
(declare-fun var52 () String)
(declare-fun var53 () String)
(declare-fun var54 () String)
(declare-fun var55 () String)
(declare-fun var56 () String)
(declare-fun var57 () String)
(declare-fun var58 () String)
(declare-fun var59 () String)
(declare-fun var60 () String)
(assert (= var0 (Concat var1 var2)))
(assert (= var2 (Concat var3 var4)))
(assert (= var4 (Concat var5 var6)))
(assert (= var6 (Concat var7 var8)))
(assert (= var8 (Concat var9 var10)))
(assert (= var10 (Concat var11 var12)))
(assert (= var12 (Concat var13 var14)))
(assert (= var14 (Concat var15 var16)))
(assert (= var16 (Concat var17 var18)))
(assert (= var18 (Concat var19 var20)))
(assert (= var20 (Concat var21 var22)))
(assert (= var22 (Concat var23 var24)))
(assert (= var24 (Concat var25 var26)))
(assert (= var26 (Concat var27 var28)))
(assert (= var28 (Concat var29 var30)))
(assert (= var30 (Concat var31 var32)))
(assert (= var32 (Concat var33 var34)))
(assert (= var34 (Concat var35 var36)))
(assert (= var36 (Concat var37 var38)))
(assert (= var38 (Concat var39 var40)))
(assert (= var40 (Concat var41 var42)))
(assert (= var42 (Concat var43 var44)))
(assert (= var44 (Concat var45 var46)))
(assert (= var46 (Concat var47 var48)))
(assert (= var48 (Concat var49 var50)))
(assert (= var50 (Concat var51 var52)))
(assert (= var52 (Concat var53 var54)))
(assert (= var54 (Concat var55 var56)))
(assert (= var56 (Concat var57 var58)))
(assert (= var58 (Concat var59 var60)))
(assert (= var0 "solution"))
(assert (= "}" (CharAt var22 920)))
(assert (= "?" (CharAt var18 974)))
(assert (= "i" (CharAt var24 35)))
(assert (= "2" (CharAt var22 773)))
(assert (= "0" (CharAt var23 229)))
(assert (= ";" (CharAt var17 215)))
(assert (= "y" (CharAt var4 318)))
(assert (= "H" (CharAt var37 237)))
(assert (= "-" (CharAt var41 75)))
(assert (= "[" (CharAt var31 291)))
(assert (= "%" (CharAt var42 247)))
(assert (= "*" (CharAt var16 250)))
(assert (= ")" (CharAt var34 291)))
(assert (= "s" (CharAt var49 987)))
(assert (= "E" (CharAt var8 27)))
(assert (= "2" (CharAt var49 813)))
(assert (= "E" (CharAt var56 97)))
(assert (= ")" (CharAt var30 593)))
(assert (= "{" (CharAt var1 17)))
(assert (= "f" (CharAt var20 966)))
(assert (= "#" (CharAt var53 820)))
(assert (= "~" (CharAt var4 498)))
(assert (= "W" (CharAt var56 349)))
(assert (= "=" (CharAt var40 317)))
(assert (= "T" (CharAt var14 859)))
(assert (= "{" (CharAt var56 798)))
(assert (= "+" (CharAt var60 874)))
(assert (= "J" (CharAt var56 637)))
(assert (= "T" (CharAt var31 5)))
(assert (= "J" (CharAt var4 930)))
(assert (= "y" (CharAt var59 708)))
(assert (= "?" (CharAt var27 617)))
(assert (= "j" (CharAt var40 763)))
(assert (= "#" (CharAt var38 979)))
(assert (= "," (CharAt var16 783)))
(assert (= ">" (CharAt var2 863)))
(assert (= "K" (CharAt var13 786)))
(assert (= "a" (CharAt var50 856)))
(assert (= "e" (CharAt var33 641)))
(assert (= "Y" (CharAt var15 374)))
(assert (= "K" (CharAt var10 984)))
(assert (= "J" (CharAt var13 846)))
(assert (= "$" (CharAt var8 11)))
(assert (= "X" (CharAt var49 652)))
(assert (= "&" (CharAt var49 526)))
(assert (= ">" (CharAt var47 117)))
(assert (= "@" (CharAt var18 113)))
(assert (= "!" (CharAt var25 117)))
(assert (= "i" (CharAt var25 93)))
(assert (= "4" (CharAt var25 511)))
(assert (= "'" (CharAt var18 930)))
(assert (= "}" (CharAt var20 672)))
(assert (= "Q" (CharAt var49 520)))
(assert (= "f" (CharAt var39 87)))
(assert (= "M" (CharAt var7 373)))
(assert (= "/" (CharAt var41 780)))
(assert (= "0" (CharAt var8 873)))
(assert (= "J" (CharAt var43 70)))
(assert (= "2" (CharAt var15 397)))
(assert (= "`" (CharAt var3 851)))
(assert (= "G" (CharAt var21 255)))
(assert (= "~" (CharAt var26 968)))
(assert (= "N" (CharAt var44 773)))
(assert (= "z" (CharAt var27 926)))
(assert (= "x" (CharAt var40 274)))
(assert (= "y" (CharAt var57 18)))
(assert (= "Y" (CharAt var15 78)))
(assert (= "N" (CharAt var48 242)))
(assert (= "i" (CharAt var8 189)))
(assert (= "x" (CharAt var30 124)))
(assert (= "#" (CharAt var16 20)))
(assert (= "V" (CharAt var21 239)))
(assert (= "#" (CharAt var3 996)))
(assert (= "t" (CharAt var40 648)))
(assert (= "z" (CharAt var32 956)))
(assert (= "C" (CharAt var24 455)))
(assert (= "k" (CharAt var44 761)))
(assert (= "X" (CharAt var48 748)))
(assert (= "\"" (CharAt var50 363)))
(assert (= "3" (CharAt var18 694)))
(assert (= "j" (CharAt var31 414)))
(assert (= "E" (CharAt var25 0)))
(assert (= "Z" (CharAt var29 716)))
(assert (= "o" (CharAt var7 367)))
(assert (= "N" (CharAt var7 991)))
(assert (= "J" (CharAt var56 821)))
(assert (= "o" (CharAt var34 745)))
(assert (= "p" (CharAt var31 796)))
(assert (= "8" (CharAt var59 413)))
(assert (= "f" (CharAt var58 327)))
(assert (= "i" (CharAt var51 101)))
(assert (= "n" (CharAt var5 758)))
(assert (= "S" (CharAt var51 682)))
(assert (= "j" (CharAt var48 723)))
(assert (= "U" (CharAt var11 839)))
(assert (= "p" (CharAt var0 768)))
(assert (= "[" (CharAt var51 25)))
(assert (= "T" (CharAt var38 327)))
(assert (= "5" (CharAt var15 923)))
(assert (= "R" (CharAt var30 469)))
(assert (= "`" (CharAt var47 361)))
(assert (= "H" (CharAt var17 470)))
(assert (= "O" (CharAt var18 21)))
(assert (= "t" (CharAt var28 760)))
(assert (= "\"" (CharAt var44 7)))
(assert (= "9" (CharAt var12 849)))
(assert (= "$" (CharAt var59 371)))
(assert (= "\\" (CharAt var47 731)))
(assert (= "." (CharAt var55 866)))
(assert (= "q" (CharAt var32 85)))
(assert (= "+" (CharAt var44 660)))
(assert (= "0" (CharAt var35 208)))
(assert (= "M" (CharAt var7 675)))
(assert (= "A" (CharAt var36 996)))
(assert (= "9" (CharAt var24 43)))
(assert (= "^" (CharAt var25 751)))
(assert (= "+" (CharAt var26 208)))
(assert (= "w" (CharAt var42 385)))
(assert (= "9" (CharAt var20 185)))
(assert (= "Y" (CharAt var60 24)))
(assert (= "\\" (CharAt var5 272)))
(assert (= "1" (CharAt var56 378)))
(assert (= "o" (CharAt var35 591)))
(assert (= "x" (CharAt var1 151)))
(assert (= "1" (CharAt var36 426)))
(assert (= ">" (CharAt var26 108)))
(assert (= "y" (CharAt var15 860)))
(assert (= "8" (CharAt var32 234)))
(assert (= "S" (CharAt var24 906)))
(assert (= "c" (CharAt var29 609)))
(assert (= "/" (CharAt var29 142)))
(assert (= "]" (CharAt var30 370)))
(assert (= "=" (CharAt var35 380)))
(assert (= "F" (CharAt var60 924)))
(assert (= "5" (CharAt var58 503)))
(assert (= "N" (CharAt var34 101)))
(assert (= "u" (CharAt var48 753)))
(assert (= "W" (CharAt var31 807)))
(assert (= "V" (CharAt var31 912)))
(assert (= "F" (CharAt var44 641)))
(assert (= "L" (CharAt var47 190)))
(assert (= "." (CharAt var43 657)))
(assert (= "t" (CharAt var10 172)))
(assert (= "q" (CharAt var43 556)))
(assert (= "a" (CharAt var25 903)))
(assert (= "I" (CharAt var54 72)))
(assert (= "_" (CharAt var55 465)))
(assert (= "d" (CharAt var30 481)))
(assert (= ")" (CharAt var7 301)))
(assert (= "<" (CharAt var34 638)))
(assert (= "~" (CharAt var34 813)))
(assert (= "l" (CharAt var60 198)))
(assert (= "!" (CharAt var4 724)))
(assert (= "," (CharAt var49 593)))
(assert (= "g" (CharAt var51 540)))
(assert (= "S" (CharAt var7 303)))
(assert (= "3" (CharAt var5 87)))
(assert (= "M" (CharAt var18 248)))
(assert (= "x" (CharAt var44 649)))
(assert (= "#" (CharAt var7 81)))
(assert (= "m" (CharAt var33 706)))
(assert (= "I" (CharAt var34 984)))
(assert (= "l" (CharAt var21 129)))
(assert (= ";" (CharAt var16 25)))
(assert (= "i" (CharAt var10 134)))
(assert (= "^" (CharAt var34 920)))
(assert (= "`" (CharAt var17 664)))
(assert (= "+" (CharAt var14 196)))
(assert (= "B" (CharAt var25 297)))
(assert (= ")" (CharAt var60 543)))
(assert (= "-" (CharAt var20 942)))
(assert (= "[" (CharAt var11 501)))
(assert (= "-" (CharAt var8 336)))
(assert (= "B" (CharAt var10 947)))
(assert (= "D" (CharAt var1 201)))
(assert (= "i" (CharAt var11 917)))
(assert (= "%" (CharAt var25 180)))
(assert (= "-" (CharAt var12 510)))
(assert (= ")" (CharAt var54 489)))
(assert (= "#" (CharAt var30 64)))
(assert (= "1" (CharAt var50 489)))
(assert (= "|" (CharAt var43 482)))
(assert (= "q" (CharAt var5 306)))
(assert (= "Q" (CharAt var26 66)))
(assert (= "5" (CharAt var38 966)))
(assert (= "k" (CharAt var23 810)))
(assert (= "u" (CharAt var34 221)))
(assert (= "j" (CharAt var45 961)))
(assert (= "5" (CharAt var18 850)))
(assert (= "y" (CharAt var53 306)))
(assert (= "f" (CharAt var42 920)))
(assert (= "k" (CharAt var57 45)))
(assert (= "Z" (CharAt var40 745)))
(assert (= "Q" (CharAt var33 235)))
(assert (= "o" (CharAt var28 543)))
(assert (= ">" (CharAt var52 513)))
(assert (= "w" (CharAt var57 113)))
(assert (= "G" (CharAt var48 238)))
(assert (= "?" (CharAt var23 274)))
(assert (= "B" (CharAt var34 43)))
(assert (= "P" (CharAt var40 319)))
(assert (= "1" (CharAt var18 383)))
(assert (= "c" (CharAt var37 206)))
(assert (= "P" (CharAt var27 259)))
(assert (= "!" (CharAt var58 348)))
(assert (= "8" (CharAt var52 276)))
(assert (= "@" (CharAt var33 330)))
(assert (= "p" (CharAt var15 53)))
(assert (= "{" (CharAt var22 184)))
(assert (= "W" (CharAt var43 711)))
(assert (= "s" (CharAt var17 282)))
(assert (= "o" (CharAt var33 155)))
(assert (= "}" (CharAt var2 310)))
(assert (= "i" (CharAt var31 533)))
(assert (= "\"" (CharAt var0 214)))
(assert (= "j" (CharAt var52 149)))
(assert (= "2" (CharAt var48 93)))
(assert (= "*" (CharAt var55 975)))
(assert (= "S" (CharAt var30 466)))
(assert (= "8" (CharAt var31 28)))
(assert (= "K" (CharAt var1 165)))
(assert (= "F" (CharAt var11 305)))
(assert (= "s" (CharAt var39 218)))
(assert (= "U" (CharAt var35 213)))
(assert (= "m" (CharAt var34 90)))
(assert (= "'" (CharAt var46 690)))
(assert (= "N" (CharAt var23 190)))
(assert (= "(" (CharAt var2 9)))
(assert (= "r" (CharAt var1 981)))
(assert (= "~" (CharAt var56 173)))
(assert (= "D" (CharAt var31 739)))
(assert (= "*" (CharAt var35 45)))
(assert (= "=" (CharAt var56 565)))
(assert (= "x" (CharAt var8 945)))
(assert (= "o" (CharAt var34 750)))
(assert (= "}" (CharAt var52 784)))
(assert (= "=" (CharAt var42 426)))
(assert (= "J" (CharAt var33 574)))
(assert (= "," (CharAt var48 154)))
(assert (= "@" (CharAt var17 792)))
(assert (= "1" (CharAt var14 809)))
(assert (= "i" (CharAt var1 851)))
(assert (= "@" (CharAt var38 79)))
(assert (= "1" (CharAt var13 938)))
(assert (= "?" (CharAt var57 297)))
(assert (= "." (CharAt var15 355)))
(assert (= "w" (CharAt var29 685)))
(assert (= "Q" (CharAt var52 371)))
(assert (= "b" (CharAt var26 996)))
(assert (= "a" (CharAt var59 110)))
(assert (= "9" (CharAt var10 483)))
(assert (= "x" (CharAt var19 81)))
(assert (= "#" (CharAt var60 586)))
(assert (= "x" (CharAt var31 37)))
(assert (= "k" (CharAt var3 509)))
(assert (= "V" (CharAt var31 71)))
(assert (= "A" (CharAt var59 374)))
(assert (= "b" (CharAt var58 37)))
(assert (= "Y" (CharAt var50 476)))
(assert (= "*" (CharAt var56 946)))
(assert (= "9" (CharAt var17 407)))
(assert (= "o" (CharAt var15 232)))
(assert (= "7" (CharAt var19 798)))
(assert (= "6" (CharAt var52 702)))
(assert (= "^" (CharAt var55 767)))
(assert (= "E" (CharAt var33 962)))
(assert (= "{" (CharAt var52 752)))
(assert (= "r" (CharAt var38 275)))
(assert (= "A" (CharAt var46 532)))
(assert (= "1" (CharAt var57 783)))
(assert (= "=" (CharAt var26 71)))
(assert (= "Y" (CharAt var35 685)))
(assert (= "0" (CharAt var47 599)))
(assert (= "P" (CharAt var12 212)))
(assert (= "w" (CharAt var53 243)))
(assert (= "T" (CharAt var23 138)))
(assert (= "5" (CharAt var41 307)))
(assert (= "O" (CharAt var53 744)))
(assert (= "^" (CharAt var7 970)))
(assert (= "P" (CharAt var36 595)))
(assert (= "v" (CharAt var13 700)))
(assert (= "Y" (CharAt var28 332)))
(assert (= "h" (CharAt var17 810)))
(assert (= "(" (CharAt var31 326)))
(assert (= "^" (CharAt var13 310)))
(assert (= "v" (CharAt var5 179)))
(assert (= "9" (CharAt var40 460)))
(assert (= "=" (CharAt var58 661)))
(assert (= "{" (CharAt var9 62)))
(assert (= "k" (CharAt var2 767)))
(assert (= "~" (CharAt var27 306)))
(assert (= "!" (CharAt var55 481)))
(assert (= "O" (CharAt var5 269)))
(assert (= "}" (CharAt var49 264)))
(assert (= "@" (CharAt var30 530)))
(assert (= "=" (CharAt var27 836)))
(assert (= ";" (CharAt var12 771)))
(assert (= "K" (CharAt var34 541)))
(assert (= "h" (CharAt var19 200)))
(assert (= "q" (CharAt var19 477)))
(assert (= "q" (CharAt var46 4)))
(assert (= "9" (CharAt var20 978)))
(assert (= "*" (CharAt var1 778)))
(assert (= "M" (CharAt var35 842)))
(assert (= "~" (CharAt var29 852)))
(assert (= "|" (CharAt var23 752)))
(assert (= "?" (CharAt var18 869)))
(assert (= "O" (CharAt var43 421)))
(assert (= "w" (CharAt var13 321)))
(assert (= "j" (CharAt var15 765)))
(assert (= "*" (CharAt var16 415)))
(assert (= "M" (CharAt var55 197)))
(assert (= ":" (CharAt var0 297)))
(assert (= "\\" (CharAt var9 608)))
(assert (= "k" (CharAt var10 444)))
(assert (= "m" (CharAt var15 439)))
(assert (= "{" (CharAt var52 76)))
(assert (= "v" (CharAt var20 878)))
(assert (= "`" (CharAt var25 969)))
(assert (= "(" (CharAt var56 306)))
(assert (= "H" (CharAt var48 390)))
(assert (= "u" (CharAt var36 168)))
(assert (= "~" (CharAt var32 692)))
(assert (= "j" (CharAt var51 195)))
(assert (= "z" (CharAt var17 139)))
(assert (= "e" (CharAt var20 559)))
(assert (= "Z" (CharAt var54 382)))
(assert (= "4" (CharAt var16 480)))
(assert (= "o" (CharAt var2 751)))
(assert (= "v" (CharAt var16 850)))
(assert (= "#" (CharAt var31 87)))
(assert (= "0" (CharAt var15 97)))
(assert (= "t" (CharAt var37 498)))
(assert (= "'" (CharAt var10 457)))
(assert (= "6" (CharAt var9 707)))
(assert (= "q" (CharAt var58 573)))
(assert (= "x" (CharAt var26 641)))
(assert (= "(" (CharAt var59 426)))
(assert (= "^" (CharAt var32 37)))
(assert (= "g" (CharAt var36 861)))
(assert (= "4" (CharAt var44 880)))
(assert (= "Y" (CharAt var11 974)))
(assert (= "G" (CharAt var40 805)))
(assert (= "`" (CharAt var7 942)))
(assert (= "U" (CharAt var19 851)))
(assert (= "G" (CharAt var21 808)))
(assert (= "i" (CharAt var55 334)))
(assert (= "$" (CharAt var52 957)))
(assert (= "@" (CharAt var1 626)))
(assert (= "X" (CharAt var24 375)))
(assert (= "!" (CharAt var46 931)))
(assert (= "8" (CharAt var15 950)))
(assert (= "1" (CharAt var51 775)))
(assert (= "a" (CharAt var32 99)))
(assert (= "P" (CharAt var34 327)))
(assert (= "Y" (CharAt var16 817)))
(assert (= "]" (CharAt var7 246)))
(assert (= "[" (CharAt var28 646)))
(assert (= "q" (CharAt var9 978)))
(assert (= "l" (CharAt var23 385)))
(assert (= "k" (CharAt var59 328)))
(assert (= "[" (CharAt var55 16)))
(assert (= "I" (CharAt var47 766)))
(assert (= "m" (CharAt var52 432)))
(assert (= "3" (CharAt var55 35)))
(assert (= "*" (CharAt var40 212)))
(assert (= "9" (CharAt var43 100)))
(assert (= ";" (CharAt var31 640)))
(assert (= "w" (CharAt var40 953)))
(assert (= "#" (CharAt var3 297)))
(assert (= "5" (CharAt var23 732)))
(assert (= "X" (CharAt var18 363)))
(assert (= "2" (CharAt var47 253)))
(assert (= "j" (CharAt var50 26)))
(assert (= "F" (CharAt var14 791)))
(assert (= "x" (CharAt var12 669)))
(assert (= "F" (CharAt var29 267)))
(assert (= "`" (CharAt var51 967)))
(assert (= "<" (CharAt var21 795)))
(assert (= "n" (CharAt var59 286)))
(assert (= "V" (CharAt var36 773)))
(assert (= "7" (CharAt var4 719)))
(assert (= "1" (CharAt var43 998)))
(assert (= "t" (CharAt var43 922)))
(assert (= "T" (CharAt var5 250)))
(assert (= "%" (CharAt var49 630)))
(assert (= "$" (CharAt var14 961)))
(assert (= "3" (CharAt var55 854)))
(assert (= "9" (CharAt var17 514)))
(assert (= "r" (CharAt var5 73)))
(assert (= "|" (CharAt var42 790)))
(assert (= "I" (CharAt var6 572)))
(assert (= "c" (CharAt var1 59)))
(assert (= "@" (CharAt var40 290)))
(assert (= "%" (CharAt var12 347)))
(assert (= "/" (CharAt var40 6)))
(assert (= "X" (CharAt var13 997)))
(assert (= "q" (CharAt var43 787)))
(assert (= "<" (CharAt var31 729)))
(assert (= "N" (CharAt var12 306)))
(assert (= "L" (CharAt var31 186)))
(assert (= "F" (CharAt var27 121)))
(assert (= "M" (CharAt var24 689)))
(assert (= ";" (CharAt var23 427)))
(assert (= "j" (CharAt var55 493)))
(assert (= "A" (CharAt var38 985)))
(assert (= "<" (CharAt var14 138)))
(assert (= "<" (CharAt var39 715)))
(assert (= "D" (CharAt var34 869)))
(assert (= "P" (CharAt var17 3)))
(assert (= "S" (CharAt var17 40)))
(assert (= "x" (CharAt var47 305)))
(assert (= "Q" (CharAt var38 53)))
(assert (= "w" (CharAt var56 909)))
(assert (= "I" (CharAt var38 102)))
(assert (= "h" (CharAt var14 855)))
(assert (= "%" (CharAt var10 262)))
(assert (= "W" (CharAt var34 441)))
(assert (= "V" (CharAt var20 180)))
(assert (= "H" (CharAt var3 625)))
(assert (= "o" (CharAt var0 343)))
(assert (= "K" (CharAt var40 673)))
(assert (= "K" (CharAt var3 810)))
(assert (= "O" (CharAt var52 428)))
(assert (= "y" (CharAt var19 737)))
(assert (= "g" (CharAt var44 130)))
(assert (= "!" (CharAt var23 995)))
(assert (= "g" (CharAt var53 126)))
(assert (= "7" (CharAt var11 192)))
(assert (= "'" (CharAt var50 718)))
(assert (= "E" (CharAt var38 381)))
(assert (= "Z" (CharAt var12 267)))
(assert (= "7" (CharAt var42 989)))
(assert (= "Z" (CharAt var1 264)))
(assert (= "k" (CharAt var23 208)))
(assert (= "-" (CharAt var43 715)))
(assert (= "\"" (CharAt var60 267)))
(assert (= "+" (CharAt var37 386)))
(assert (= "[" (CharAt var32 928)))
(assert (= "f" (CharAt var6 498)))
(assert (= ")" (CharAt var59 86)))
(assert (= "0" (CharAt var54 474)))
(assert (= "e" (CharAt var17 690)))
(assert (= "g" (CharAt var53 107)))
(assert (= "I" (CharAt var36 221)))
(assert (= "S" (CharAt var47 151)))
(assert (= "G" (CharAt var22 421)))
(assert (= "&" (CharAt var60 961)))
(assert (= "Y" (CharAt var15 583)))
(assert (= "+" (CharAt var55 125)))
(assert (= "Q" (CharAt var12 281)))
(assert (= "i" (CharAt var19 327)))
(assert (= "n" (CharAt var15 181)))
(assert (= "_" (CharAt var51 231)))
(assert (= "[" (CharAt var29 485)))
(assert (= "m" (CharAt var40 441)))
(assert (= "3" (CharAt var55 799)))
(assert (= "9" (CharAt var60 653)))
(assert (= ">" (CharAt var29 608)))
(assert (= "&" (CharAt var60 260)))
(assert (= "e" (CharAt var53 536)))
(assert (= "z" (CharAt var26 160)))
(assert (= "8" (CharAt var25 749)))
(assert (= "c" (CharAt var20 726)))
(assert (= "S" (CharAt var51 13)))
(assert (= ")" (CharAt var43 302)))
(assert (= "I" (CharAt var49 29)))
(assert (= "-" (CharAt var5 824)))
(assert (= "i" (CharAt var28 248)))
(assert (= "2" (CharAt var6 598)))
(assert (= "_" (CharAt var53 887)))
(assert (= "K" (CharAt var2 404)))
(assert (= "k" (CharAt var50 195)))
(assert (= "#" (CharAt var31 320)))
(assert (= "s" (CharAt var23 765)))
(assert (= "z" (CharAt var4 348)))
(assert (= "&" (CharAt var0 494)))
(assert (= "B" (CharAt var18 128)))
(assert (= "q" (CharAt var12 575)))
(assert (= "g" (CharAt var55 46)))
(assert (= "g" (CharAt var58 680)))
(check-sat)